cliques=[{3,1,2,0},{3,1,2,0},{3,1,2,0},{3,1,2,0},{4,13,0,9,27,18},{10,14,23,28,5},{4,6,7,8,5},{29,2,7,21,17},{4,6,7,8,5},{4,13,0,9,27,18},{10,9,11,12},{3,25,11,30},{10,9,11,12},{4,13,0,9,27,18},{10,14,23,28,5},{13,16,14,17,15},{1,16,20},{29,2,7,21,17},{4,13,0,9,27,18},{22,20,21,19,18},{1,16,20},{29,2,7,21,17},{22,26,8,12},{10,14,23,28,5},{25,24,26,23},{3,25,11,30},{25,24,26,23},{4,13,0,9,27,18},{10,14,23,28,5},{29,2,7,21,17},{3,25,11,30}];
nr_cliques=31;
